(set-logic HORN)
(set-info :source |
    Benchmark: C_VC
    Output by Princess (http://www.philipp.ruemmer.org/princess.shtml)
|)
(set-info :status unknown)
(declare-fun inv_main116 (Int Int Int Int Int Int Int Int Int) Bool)
(declare-fun inv_main21 (Int Int Int Int Int Int Int Int Int) Bool)
(declare-fun inv_main3 (Int) Bool)
(declare-fun inv_main73 (Int Int Int Int Int Int Int Int Int) Bool)
(assert (forall ((var0 Int)) (inv_main3 var0 ) ) )
(assert (forall ((var0 Int)) (forall ((var1 Int)) (forall ((var2 Int)) (forall ((var3 Int)) (forall ((var4 Int)) (forall ((var5 Int)) (forall ((var6 Int)) (forall ((var7 Int)) (forall ((var8 Int)) (or (not (and (inv_main21 var8 var3 var7 var1 var2 var0 var4 var5 var6 ) (and (= var1 0 ) (and (not (= var7 (- 1) ) ) (and (= var8 8544 ) (and (not (= var8 8528 ) ) (and (not (= var8 8512 ) ) (and (not (= var8 8496 ) ) (and (not (= var8 8466 ) ) (not (and (<= 0 (+ 8512 (* (- 1) var8 ) ) ) (<= 0 (+ (+ var5 (- 2) ) (- 1) ) ) ) ) ) ) ) ) ) ) ) ) ) (inv_main73 var8 var3 var7 var1 var2 var0 var4 var5 var6 ) ) ) ) ) ) ) ) ) ) ) )
(assert (forall ((var0 Int)) (forall ((var1 Int)) (forall ((var2 Int)) (forall ((var3 Int)) (forall ((var4 Int)) (forall ((var5 Int)) (forall ((var6 Int)) (forall ((var7 Int)) (forall ((var8 Int)) (or (not (and (inv_main21 var8 var3 var7 var1 var2 var0 var4 var5 var6 ) (and (= var7 (- 4) ) (and (not (= var1 0 ) ) (and (not (= var7 (- 1) ) ) (and (= var8 8544 ) (and (not (= var8 8528 ) ) (and (not (= var8 8512 ) ) (and (not (= var8 8496 ) ) (and (not (= var8 8466 ) ) (not (and (<= 0 (+ 8512 (* (- 1) var8 ) ) ) (<= 0 (+ (+ var5 (- 2) ) (- 1) ) ) ) ) ) ) ) ) ) ) ) ) ) ) (inv_main73 var8 var3 var7 var1 var2 var0 var4 var5 var6 ) ) ) ) ) ) ) ) ) ) ) )
(assert (forall ((var0 Int)) (forall ((var1 Int)) (forall ((var2 Int)) (forall ((var3 Int)) (forall ((var4 Int)) (forall ((var5 Int)) (forall ((var6 Int)) (forall ((var7 Int)) (forall ((var8 Int)) (or (not (and (inv_main21 var8 var3 var7 var1 var2 var0 var4 var5 var6 ) (and (<= 0 (+ 8512 (* (- 1) var8 ) ) ) (<= 0 (+ (+ var5 (- 2) ) (- 1) ) ) ) ) ) (inv_main116 var8 var3 var7 var1 var2 var0 var4 var5 var6 ) ) ) ) ) ) ) ) ) ) ) )
(assert (forall ((var0 Int)) (forall ((var1 Int)) (forall ((var2 Int)) (forall ((var3 Int)) (forall ((var4 Int)) (forall ((var5 Int)) (forall ((var6 Int)) (forall ((var7 Int)) (forall ((var8 Int)) (or (not (and (inv_main21 var8 var3 var7 var1 var2 var0 var4 var5 var6 ) (and (= var5 5 ) (and (not (= var5 4 ) ) (and (= var8 8672 ) (and (not (= var8 8656 ) ) (and (not (= var8 8640 ) ) (and (not (= var8 8608 ) ) (and (not (= var8 8592 ) ) (and (not (= var8 8576 ) ) (and (not (= var8 8560 ) ) (and (not (= var8 8544 ) ) (and (not (= var8 8528 ) ) (and (not (= var8 8512 ) ) (and (not (= var8 8496 ) ) (and (not (= var8 8466 ) ) (not (and (<= 0 (+ 8512 (* (- 1) var8 ) ) ) (<= 0 (+ (+ var5 (- 2) ) (- 1) ) ) ) ) ) ) ) ) ) ) ) ) ) ) ) ) ) ) ) ) (inv_main116 var8 var3 var7 var1 var2 var0 var4 var5 var6 ) ) ) ) ) ) ) ) ) ) ) )
(assert (forall ((var0 Int)) (forall ((var1 Int)) (forall ((var2 Int)) (forall ((var3 Int)) (forall ((var4 Int)) (forall ((var5 Int)) (forall ((var6 Int)) (forall ((var7 Int)) (forall ((var8 Int)) (or (not (and (inv_main21 var8 var3 var7 var1 var2 var0 var4 var5 var6 ) (and (= var8 8512 ) (and (not (= var8 8496 ) ) (and (not (= var8 8466 ) ) (not (and (<= 0 (+ 8512 (* (- 1) var8 ) ) ) (<= 0 (+ (+ var5 (- 2) ) (- 1) ) ) ) ) ) ) ) ) ) (inv_main21 8528 var3 var7 var1 var2 var0 var4 var5 var6 ) ) ) ) ) ) ) ) ) ) ) )
(assert (forall ((var0 Int)) (forall ((var1 Int)) (forall ((var2 Int)) (forall ((var3 Int)) (forall ((var4 Int)) (forall ((var5 Int)) (forall ((var6 Int)) (forall ((var7 Int)) (forall ((var8 Int)) (or (not (and (inv_main21 var8 var3 var7 var1 var2 var0 var4 var5 var6 ) (and (= var8 8528 ) (and (not (= var8 8512 ) ) (and (not (= var8 8496 ) ) (and (not (= var8 8466 ) ) (not (and (<= 0 (+ 8512 (* (- 1) var8 ) ) ) (<= 0 (+ (+ var5 (- 2) ) (- 1) ) ) ) ) ) ) ) ) ) ) (inv_main21 8544 var3 var7 var1 var2 var0 var4 var5 var6 ) ) ) ) ) ) ) ) ) ) ) )
(assert (forall ((var0 Int)) (forall ((var1 Int)) (forall ((var2 Int)) (forall ((var3 Int)) (forall ((var4 Int)) (forall ((var5 Int)) (forall ((var6 Int)) (forall ((var7 Int)) (forall ((var8 Int)) (or (not (and (inv_main21 var8 var3 var7 var1 var2 var0 var4 var5 var6 ) (and (= var8 8560 ) (and (not (= var8 8544 ) ) (and (not (= var8 8528 ) ) (and (not (= var8 8512 ) ) (and (not (= var8 8496 ) ) (and (not (= var8 8466 ) ) (not (and (<= 0 (+ 8512 (* (- 1) var8 ) ) ) (<= 0 (+ (+ var5 (- 2) ) (- 1) ) ) ) ) ) ) ) ) ) ) ) ) (inv_main21 8576 var3 var7 var1 var2 var0 var4 var5 var6 ) ) ) ) ) ) ) ) ) ) ) )
(assert (forall ((var0 Int)) (forall ((var1 Int)) (forall ((var2 Int)) (forall ((var3 Int)) (forall ((var4 Int)) (forall ((var5 Int)) (forall ((var6 Int)) (forall ((var7 Int)) (forall ((var8 Int)) (or (not (and (inv_main21 var8 var3 var7 var1 var2 var0 var4 var5 var6 ) (and (= var8 8592 ) (and (not (= var8 8576 ) ) (and (not (= var8 8560 ) ) (and (not (= var8 8544 ) ) (and (not (= var8 8528 ) ) (and (not (= var8 8512 ) ) (and (not (= var8 8496 ) ) (and (not (= var8 8466 ) ) (not (and (<= 0 (+ 8512 (* (- 1) var8 ) ) ) (<= 0 (+ (+ var5 (- 2) ) (- 1) ) ) ) ) ) ) ) ) ) ) ) ) ) ) (inv_main21 8608 var3 var7 var1 var2 var0 var4 var5 var6 ) ) ) ) ) ) ) ) ) ) ) )
(assert (forall ((var0 Int)) (forall ((var1 Int)) (forall ((var2 Int)) (forall ((var3 Int)) (forall ((var4 Int)) (forall ((var5 Int)) (forall ((var6 Int)) (forall ((var7 Int)) (forall ((var8 Int)) (or (not (and (inv_main21 var8 var3 var7 var1 var2 var0 var4 var5 var6 ) (and (= var8 8608 ) (and (not (= var8 8592 ) ) (and (not (= var8 8576 ) ) (and (not (= var8 8560 ) ) (and (not (= var8 8544 ) ) (and (not (= var8 8528 ) ) (and (not (= var8 8512 ) ) (and (not (= var8 8496 ) ) (and (not (= var8 8466 ) ) (not (and (<= 0 (+ 8512 (* (- 1) var8 ) ) ) (<= 0 (+ (+ var5 (- 2) ) (- 1) ) ) ) ) ) ) ) ) ) ) ) ) ) ) ) (inv_main21 8640 var3 var7 var1 var2 var0 var4 var5 var6 ) ) ) ) ) ) ) ) ) ) ) )
(assert (forall ((var0 Int)) (forall ((var1 Int)) (forall ((var2 Int)) (forall ((var3 Int)) (forall ((var4 Int)) (forall ((var5 Int)) (forall ((var6 Int)) (forall ((var7 Int)) (forall ((var8 Int)) (or (not (and (inv_main21 var8 var3 var7 var1 var2 var0 var4 var5 var6 ) (and (= var5 0 ) (and (= var8 8466 ) (not (and (<= 0 (+ 8512 (* (- 1) var8 ) ) ) (<= 0 (+ (+ var5 (- 2) ) (- 1) ) ) ) ) ) ) ) ) (inv_main21 8496 var3 var7 var1 var2 var0 var4 1 var6 ) ) ) ) ) ) ) ) ) ) ) )
(assert (forall ((var0 Int)) (forall ((var1 Int)) (forall ((var2 Int)) (forall ((var3 Int)) (forall ((var4 Int)) (forall ((var5 Int)) (forall ((var6 Int)) (forall ((var7 Int)) (forall ((var8 Int)) (or (not (and (inv_main21 var8 var3 var7 var1 var2 var0 var4 var5 var6 ) (and (not (= var5 0 ) ) (and (= var8 8466 ) (not (and (<= 0 (+ 8512 (* (- 1) var8 ) ) ) (<= 0 (+ (+ var5 (- 2) ) (- 1) ) ) ) ) ) ) ) ) (inv_main21 8496 var3 var7 var1 var2 var0 var4 var5 var6 ) ) ) ) ) ) ) ) ) ) ) )
(assert (forall ((var0 Int)) (forall ((var1 Int)) (forall ((var2 Int)) (forall ((var3 Int)) (forall ((var4 Int)) (forall ((var5 Int)) (forall ((var6 Int)) (forall ((var7 Int)) (forall ((var8 Int)) (or (not (and (inv_main21 var8 var3 var7 var1 var2 var0 var4 var5 var6 ) (and (not (= var3 0 ) ) (and (= var5 1 ) (and (= var8 8496 ) (and (not (= var8 8466 ) ) (not (and (<= 0 (+ 8512 (* (- 1) var8 ) ) ) (<= 0 (+ (+ var5 (- 2) ) (- 1) ) ) ) ) ) ) ) ) ) ) (inv_main21 8656 var3 var7 var1 var2 var0 var4 2 var6 ) ) ) ) ) ) ) ) ) ) ) )
(assert (forall ((var0 Int)) (forall ((var1 Int)) (forall ((var2 Int)) (forall ((var3 Int)) (forall ((var4 Int)) (forall ((var5 Int)) (forall ((var6 Int)) (forall ((var7 Int)) (forall ((var8 Int)) (or (not (and (inv_main21 var8 var3 var7 var1 var2 var0 var4 var5 var6 ) (and (= var3 0 ) (and (= var5 1 ) (and (= var8 8496 ) (and (not (= var8 8466 ) ) (not (and (<= 0 (+ 8512 (* (- 1) var8 ) ) ) (<= 0 (+ (+ var5 (- 2) ) (- 1) ) ) ) ) ) ) ) ) ) ) (inv_main21 8512 var3 var7 var1 var2 var0 var4 2 var6 ) ) ) ) ) ) ) ) ) ) ) )
(assert (forall ((var0 Int)) (forall ((var1 Int)) (forall ((var2 Int)) (forall ((var3 Int)) (forall ((var4 Int)) (forall ((var5 Int)) (forall ((var6 Int)) (forall ((var7 Int)) (forall ((var8 Int)) (or (not (and (inv_main21 var8 var3 var7 var1 var2 var0 var4 var5 var6 ) (and (not (= var3 0 ) ) (and (not (= var5 1 ) ) (and (= var8 8496 ) (and (not (= var8 8466 ) ) (not (and (<= 0 (+ 8512 (* (- 1) var8 ) ) ) (<= 0 (+ (+ var5 (- 2) ) (- 1) ) ) ) ) ) ) ) ) ) ) (inv_main21 8656 var3 var7 var1 var2 var0 var4 var5 var6 ) ) ) ) ) ) ) ) ) ) ) )
(assert (forall ((var0 Int)) (forall ((var1 Int)) (forall ((var2 Int)) (forall ((var3 Int)) (forall ((var4 Int)) (forall ((var5 Int)) (forall ((var6 Int)) (forall ((var7 Int)) (forall ((var8 Int)) (or (not (and (inv_main21 var8 var3 var7 var1 var2 var0 var4 var5 var6 ) (and (= var3 0 ) (and (not (= var5 1 ) ) (and (= var8 8496 ) (and (not (= var8 8466 ) ) (not (and (<= 0 (+ 8512 (* (- 1) var8 ) ) ) (<= 0 (+ (+ var5 (- 2) ) (- 1) ) ) ) ) ) ) ) ) ) ) (inv_main21 8512 var3 var7 var1 var2 var0 var4 var5 var6 ) ) ) ) ) ) ) ) ) ) ) )
(assert (forall ((var0 Int)) (forall ((var1 Int)) (forall ((var2 Int)) (forall ((var3 Int)) (forall ((var4 Int)) (forall ((var5 Int)) (forall ((var6 Int)) (forall ((var7 Int)) (forall ((var8 Int)) (forall ((var9 Int)) (or (not (and (inv_main21 var9 var4 var8 var1 var2 var0 var5 var6 var7 ) (and (= var3 2 ) (and (= var9 8576 ) (and (not (= var9 8560 ) ) (and (not (= var9 8544 ) ) (and (not (= var9 8528 ) ) (and (not (= var9 8512 ) ) (and (not (= var9 8496 ) ) (and (not (= var9 8466 ) ) (not (and (<= 0 (+ 8512 (* (- 1) var9 ) ) ) (<= 0 (+ (+ var6 (- 2) ) (- 1) ) ) ) ) ) ) ) ) ) ) ) ) ) ) (inv_main21 8466 var4 var8 var1 var2 var0 var5 var6 var3 ) ) ) ) ) ) ) ) ) ) ) ) )
(assert (forall ((var0 Int)) (forall ((var1 Int)) (forall ((var2 Int)) (forall ((var3 Int)) (forall ((var4 Int)) (forall ((var5 Int)) (forall ((var6 Int)) (forall ((var7 Int)) (forall ((var8 Int)) (forall ((var9 Int)) (or (not (and (inv_main21 var9 var4 var8 var1 var2 var0 var5 var6 var7 ) (and (not (= var3 2 ) ) (and (= var9 8576 ) (and (not (= var9 8560 ) ) (and (not (= var9 8544 ) ) (and (not (= var9 8528 ) ) (and (not (= var9 8512 ) ) (and (not (= var9 8496 ) ) (and (not (= var9 8466 ) ) (not (and (<= 0 (+ 8512 (* (- 1) var9 ) ) ) (<= 0 (+ (+ var6 (- 2) ) (- 1) ) ) ) ) ) ) ) ) ) ) ) ) ) ) (inv_main21 8592 var4 var8 var1 var2 var0 var5 var6 var3 ) ) ) ) ) ) ) ) ) ) ) ) )
(assert (forall ((var0 Int)) (forall ((var1 Int)) (forall ((var2 Int)) (forall ((var3 Int)) (forall ((var4 Int)) (forall ((var5 Int)) (forall ((var6 Int)) (forall ((var7 Int)) (forall ((var8 Int)) (or (not (and (inv_main21 var8 var3 var7 var1 var2 var0 var4 var5 var6 ) (and (= var3 0 ) (and (= var5 3 ) (and (= var8 8640 ) (and (not (= var8 8608 ) ) (and (not (= var8 8592 ) ) (and (not (= var8 8576 ) ) (and (not (= var8 8560 ) ) (and (not (= var8 8544 ) ) (and (not (= var8 8528 ) ) (and (not (= var8 8512 ) ) (and (not (= var8 8496 ) ) (and (not (= var8 8466 ) ) (not (and (<= 0 (+ 8512 (* (- 1) var8 ) ) ) (<= 0 (+ (+ var5 (- 2) ) (- 1) ) ) ) ) ) ) ) ) ) ) ) ) ) ) ) ) ) ) (inv_main21 8656 var3 var7 var1 var2 var0 var4 4 var6 ) ) ) ) ) ) ) ) ) ) ) )
(assert (forall ((var0 Int)) (forall ((var1 Int)) (forall ((var2 Int)) (forall ((var3 Int)) (forall ((var4 Int)) (forall ((var5 Int)) (forall ((var6 Int)) (forall ((var7 Int)) (forall ((var8 Int)) (or (not (and (inv_main21 var8 var3 var7 var1 var2 var0 var4 var5 var6 ) (and (= var3 0 ) (and (not (= var5 3 ) ) (and (= var8 8640 ) (and (not (= var8 8608 ) ) (and (not (= var8 8592 ) ) (and (not (= var8 8576 ) ) (and (not (= var8 8560 ) ) (and (not (= var8 8544 ) ) (and (not (= var8 8528 ) ) (and (not (= var8 8512 ) ) (and (not (= var8 8496 ) ) (and (not (= var8 8466 ) ) (not (and (<= 0 (+ 8512 (* (- 1) var8 ) ) ) (<= 0 (+ (+ var5 (- 2) ) (- 1) ) ) ) ) ) ) ) ) ) ) ) ) ) ) ) ) ) ) (inv_main21 8656 var3 var7 var1 var2 var0 var4 var5 var6 ) ) ) ) ) ) ) ) ) ) ) )
(assert (forall ((var0 Int)) (forall ((var1 Int)) (forall ((var2 Int)) (forall ((var3 Int)) (forall ((var4 Int)) (forall ((var5 Int)) (forall ((var6 Int)) (forall ((var7 Int)) (forall ((var8 Int)) (or (not (and (inv_main21 var8 var3 var7 var1 var2 var0 var4 var5 var6 ) (and (= var5 2 ) (and (= var8 8656 ) (and (not (= var8 8640 ) ) (and (not (= var8 8608 ) ) (and (not (= var8 8592 ) ) (and (not (= var8 8576 ) ) (and (not (= var8 8560 ) ) (and (not (= var8 8544 ) ) (and (not (= var8 8528 ) ) (and (not (= var8 8512 ) ) (and (not (= var8 8496 ) ) (and (not (= var8 8466 ) ) (not (and (<= 0 (+ 8512 (* (- 1) var8 ) ) ) (<= 0 (+ (+ var5 (- 2) ) (- 1) ) ) ) ) ) ) ) ) ) ) ) ) ) ) ) ) ) ) (inv_main21 8672 var3 var7 var1 var2 var0 var4 3 var6 ) ) ) ) ) ) ) ) ) ) ) )
(assert (forall ((var0 Int)) (forall ((var1 Int)) (forall ((var2 Int)) (forall ((var3 Int)) (forall ((var4 Int)) (forall ((var5 Int)) (forall ((var6 Int)) (forall ((var7 Int)) (forall ((var8 Int)) (or (not (and (inv_main21 var8 var3 var7 var1 var2 var0 var4 var5 var6 ) (and (not (= var5 2 ) ) (and (= var8 8656 ) (and (not (= var8 8640 ) ) (and (not (= var8 8608 ) ) (and (not (= var8 8592 ) ) (and (not (= var8 8576 ) ) (and (not (= var8 8560 ) ) (and (not (= var8 8544 ) ) (and (not (= var8 8528 ) ) (and (not (= var8 8512 ) ) (and (not (= var8 8496 ) ) (and (not (= var8 8466 ) ) (not (and (<= 0 (+ 8512 (* (- 1) var8 ) ) ) (<= 0 (+ (+ var5 (- 2) ) (- 1) ) ) ) ) ) ) ) ) ) ) ) ) ) ) ) ) ) ) (inv_main21 8672 var3 var7 var1 var2 var0 var4 var5 var6 ) ) ) ) ) ) ) ) ) ) ) )
(assert (forall ((var0 Int)) (forall ((var1 Int)) (forall ((var2 Int)) (forall ((var3 Int)) (forall ((var4 Int)) (forall ((var5 Int)) (forall ((var6 Int)) (forall ((var7 Int)) (forall ((var8 Int)) (or (not (and (inv_main21 var8 var3 var7 var1 var2 var0 var4 var5 var6 ) (and (not (= var3 0 ) ) (and (= var5 4 ) (and (= var8 8672 ) (and (not (= var8 8656 ) ) (and (not (= var8 8640 ) ) (and (not (= var8 8608 ) ) (and (not (= var8 8592 ) ) (and (not (= var8 8576 ) ) (and (not (= var8 8560 ) ) (and (not (= var8 8544 ) ) (and (not (= var8 8528 ) ) (and (not (= var8 8512 ) ) (and (not (= var8 8496 ) ) (and (not (= var8 8466 ) ) (not (and (<= 0 (+ 8512 (* (- 1) var8 ) ) ) (<= 0 (+ (+ var5 (- 2) ) (- 1) ) ) ) ) ) ) ) ) ) ) ) ) ) ) ) ) ) ) ) ) (inv_main21 8640 var3 var7 var1 var2 var0 var4 5 var6 ) ) ) ) ) ) ) ) ) ) ) )
(assert (forall ((var0 Int)) (forall ((var1 Int)) (forall ((var2 Int)) (forall ((var3 Int)) (forall ((var4 Int)) (forall ((var5 Int)) (forall ((var6 Int)) (forall ((var7 Int)) (forall ((var8 Int)) (or (not (and (inv_main21 var8 var3 var7 var1 var2 var0 var4 var5 var6 ) (and (not (= var3 0 ) ) (and (not (= var5 5 ) ) (and (not (= var5 4 ) ) (and (= var8 8672 ) (and (not (= var8 8656 ) ) (and (not (= var8 8640 ) ) (and (not (= var8 8608 ) ) (and (not (= var8 8592 ) ) (and (not (= var8 8576 ) ) (and (not (= var8 8560 ) ) (and (not (= var8 8544 ) ) (and (not (= var8 8528 ) ) (and (not (= var8 8512 ) ) (and (not (= var8 8496 ) ) (and (not (= var8 8466 ) ) (not (and (<= 0 (+ 8512 (* (- 1) var8 ) ) ) (<= 0 (+ (+ var5 (- 2) ) (- 1) ) ) ) ) ) ) ) ) ) ) ) ) ) ) ) ) ) ) ) ) ) (inv_main21 8640 var3 var7 var1 var2 var0 var4 var5 var6 ) ) ) ) ) ) ) ) ) ) ) )
(assert (forall ((var0 Int)) (forall ((var1 Int)) (forall ((var2 Int)) (forall ((var3 Int)) (forall ((var4 Int)) (forall ((var5 Int)) (forall ((var6 Int)) (forall ((var7 Int)) (forall ((var8 Int)) (or (not (and (inv_main21 var8 var3 var7 var1 var2 var0 var4 var5 var6 ) (and (= var7 (- 1) ) (and (= var8 8544 ) (and (not (= var8 8528 ) ) (and (not (= var8 8512 ) ) (and (not (= var8 8496 ) ) (and (not (= var8 8466 ) ) (not (and (<= 0 (+ 8512 (* (- 1) var8 ) ) ) (<= 0 (+ (+ var5 (- 2) ) (- 1) ) ) ) ) ) ) ) ) ) ) ) ) (inv_main21 8560 var3 var7 var1 var2 var0 var4 var5 var6 ) ) ) ) ) ) ) ) ) ) ) )
(assert (forall ((var0 Int)) (forall ((var1 Int)) (forall ((var2 Int)) (forall ((var3 Int)) (forall ((var4 Int)) (forall ((var5 Int)) (forall ((var6 Int)) (forall ((var7 Int)) (forall ((var8 Int)) (or (not (and (inv_main21 var8 var3 var7 var1 var2 var0 var4 var5 var6 ) (and (not (= var7 (- 4) ) ) (and (not (= var1 0 ) ) (and (not (= var7 (- 1) ) ) (and (= var8 8544 ) (and (not (= var8 8528 ) ) (and (not (= var8 8512 ) ) (and (not (= var8 8496 ) ) (and (not (= var8 8466 ) ) (not (and (<= 0 (+ 8512 (* (- 1) var8 ) ) ) (<= 0 (+ (+ var5 (- 2) ) (- 1) ) ) ) ) ) ) ) ) ) ) ) ) ) ) (inv_main21 8560 var3 var7 var1 var2 var0 var4 var5 var6 ) ) ) ) ) ) ) ) ) ) ) )
(assert (forall ((var0 Int)) (forall ((var1 Int)) (forall ((var2 Int)) (forall ((var3 Int)) (forall ((var4 Int)) (forall ((var5 Int)) (forall ((var6 Int)) (forall ((var7 Int)) (forall ((var8 Int)) (or (not (and (inv_main73 var8 var3 var7 var1 var2 var0 var4 var5 var6 ) (and (= var7 (- 2) ) (not (= var2 (- 256) ) ) ) ) ) (inv_main21 8560 var3 var7 var1 var2 var0 var4 var5 var6 ) ) ) ) ) ) ) ) ) ) ) )
(assert (forall ((var0 Int)) (forall ((var1 Int)) (forall ((var2 Int)) (forall ((var3 Int)) (forall ((var4 Int)) (forall ((var5 Int)) (forall ((var6 Int)) (forall ((var7 Int)) (forall ((var8 Int)) (or (not (and (inv_main73 var8 var3 var7 var1 var2 var0 var4 var5 var6 ) (= var2 (- 256) ) ) ) (inv_main21 8576 var3 var7 var1 var2 var0 var4 var5 var6 ) ) ) ) ) ) ) ) ) ) ) )
(assert (forall ((var0 Int)) (forall ((var1 Int)) (forall ((var2 Int)) (forall ((var3 Int)) (forall ((var4 Int)) (forall ((var5 Int)) (forall ((var6 Int)) (forall ((var7 Int)) (forall ((var8 Int)) (or (not (and (inv_main73 var8 var3 var7 var1 var2 var0 var4 var5 var6 ) (and (not (= var7 (- 2) ) ) (not (= var2 (- 256) ) ) ) ) ) (inv_main21 8576 var3 var7 var1 var2 var0 var4 var5 var6 ) ) ) ) ) ) ) ) ) ) ) )
(assert (forall ((var0 Int)) (forall ((var1 Int)) (forall ((var2 Int)) (forall ((var3 Int)) (forall ((var4 Int)) (forall ((var5 Int)) (forall ((var6 Int)) (forall ((var7 Int)) (or (not (inv_main3 var7 ) ) (inv_main21 8466 var6 var4 var2 var3 var5 var0 0 var1 ) ) ) ) ) ) ) ) ) ) )
(assert (forall ((var0 Int)) (forall ((var1 Int)) (forall ((var2 Int)) (forall ((var3 Int)) (forall ((var4 Int)) (forall ((var5 Int)) (forall ((var6 Int)) (forall ((var7 Int)) (forall ((var8 Int)) (not (inv_main116 var8 var3 var7 var1 var2 var0 var4 var5 var6 ) ) ) ) ) ) ) ) ) ) ) )
(check-sat)
